NAME : rnd7_20.tsp
TYPE : TSP
DIMENSION : 20
EDGE_WEIGHT_TYPE : EUC_2D
NODE_COORD_SECTION
0 461 852
1 902 452
2 706 317
3 528 551
4 744 426
5 305 966
6 326 505
7 980 270
8 314 295
9 844 524
10 18 31
11 270 201
12 989 340
13 162 469
14 585 777
15 270 435
16 169 85
17 18 274
18 322 935
19 225 891
